6.08		 
7.08		 11.1  +
8.08
9.08		 11.2  +      
10.08		 11.2a
11.08
12.08		 12.1
13.08
14.08		 12.2
15.08
16.08		 12.3
17.08
18.08		 15.1
19.08		 15.1a
20.08		 15.1b
21.08
22.08		 15.2
23.08
24.08		 15.3
25.08
26.08		 15.4
27.08		 
28.08		 15.5
29.08
30.08		 17.1
31.08
1.09		 17.2
2.09
3.09		 17.3
4.09		 17.3a
5.09		 17.3b
6.09
7.09		 17.4
8.09
9.09		 18.1
10.09		 18.1a
11.09		 18.1b
12.09
13.09		 18.2
14.09		 18.2a
15.09		 18.2b
16.09		 18.2c
17.09
18.09		 18.3
19.09
20.09		 19.1
21.09
22.09		 19.2
23.09		 
24.09		 19.3
25.09		 19.3a
26.09
27.09		 19.4
28.09
29.09		 20.1
30.09
1.10		 20.2
2.10
3.10		 20.3
4.10
5.10		 20.4
6.10
7.10		 20.5
8.10		 20.5a
9.10
10.10		 21.1
11.10		 21.1a
12.10
13.10		 21.2
14.10
15.10		 21.3
16.10
17.10		 21.4
18.10
19.10		 21.5
20.10
21.10		 22.1
22.10		 22.1a
23.10		 22.1b
24.10		 22.1c
25.10		 22.1d
26.10
27.10		 22.2
28.10		 22.2a
29.10		 22.2b
30.10		 22.2c
31.10
1.11  		 23.1
2.11		 23.1a
3.11
4.11		 23.2
5.11
6.11		 23.3
7.11
8.11		 24.1
9.11		 24.1a
10.11		 
11.11		 24.2
12.11		 24.2a
13.11		 24.2b
14.11		 24.2c
15.11		 24.2d
16.11
17.11		 25.1
18.11		
19.11		 25.2
20.11	
21.11		 25.3
22.11
23.11		 25.4
24.11
25.11		 25.5
26.11		 25.5a
27.11
28.11		 25.6
29.11
30.11

